(declare-const a Real)
(declare-const b Real)
(declare-const c Real)
(assert (= (* a b c) 1))
(assert (> a 0))
(assert (> b 0))
(assert (> c 0))
(assert (not (<= (+ (* -8952 (pow b 4)) (* -6456 (pow a 4)) (* (pow (+ (* (/ 1327 2) (pow a 2)) (* (/ 3103 2) (pow b 4)) (* 5554 b (pow a 3)) (* 5781 (pow a 2) (pow b 2)) (* 22594 a (pow b 3))) -1) (pow (+ (* (/ 1327 2) (pow a 3)) (* (/ 3103 2) (pow b 4)) (* 5554 b (pow a 3)) (* 5781 (pow a 2) (pow b 2)) (* 22594 a (pow b 3))) 2)) (* -13824 (pow a (pow 3 -1)) (pow b (/ 11 3))) (* -6912 (pow a (/ 10 3)) (pow b (/ 2 3)))) 0)))
(check-sat)
(get-model)
(exit)